************************************************************************
file with basedata            : mm51_.bas
initial value random generator: 1235887528
************************************************************************
projects                      :  1
jobs (incl. supersource/sink ):  12
horizon                       :  73
RESOURCES
  - renewable                 :  2   R
  - nonrenewable              :  2   N
  - doubly constrained        :  0   D
************************************************************************
PROJECT INFORMATION:
pronr.  #jobs rel.date duedate tardcost  MPM-Time
    1     10      0       19        7       19
************************************************************************
PRECEDENCE RELATIONS:
jobnr.    #modes  #successors   successors
   0        1          3           1   2   3
   1        3          3           7   8  10
   2        3          3           5   6  10
   3        3          2           4   9
   4        3          1           6
   5        3          1           9
   6        3          1           8
   7        3          1           9
   8        3          1          11
   9        3          1          11
  10        3          1          11
  11        1          0        
************************************************************************
REQUESTS/DURATIONS:
jobnr. mode duration  R 1  R 2  R 3  R 4  E(W 1)  E(W 2)  E(W 3)
------------------------------------------------------------------------
  0      1     0       0    0    0    0     0       0       0
  1      1     7       7    9    0    7    112       0      49
  2      1     1       8    5    9    0    13       9       0
  3      1     3      10    8    0    6    54       0      18
  4      1     7       4    7    0    9    77       0      63
  5      1     4       8    5    7    0    52      28       0
  6      1     5       8    9    7    0    85      35       0
  7      1     2       5    4    4    0    18       8       0
  8      1     4       6    9    0    5    60       0      20
  9      1     4       5    7    0    8    48       0      32
 10      1     2       6    6    6    0    24      12       0
 11      1     0       0    0    0    0     0       0       0
************************************************************************
RESOURCEAVAILABILITIES:
  R 1  R 2  R 3
   38   55   36
************************************************************************
RESOURCE LIMITS:
jobnr.  l(R 1)  u(R 1)  l(R 2)  u(R 2)  l(R 3)  u(R 3)
------------------------------------------------------------------------
  0        0       0       0       0       0       0
  1        9      16       0       0       4       7
  2        7      13       5       9       0       0
  3        9      18       0       0       3       6
  4        6      11       0       0       5       9
  5        7      13       4       7       0       0
  6        9      17       4       7       0       0
  7        5       9       2       4       0       0
  8        8      15       0       0       3       5
  9        7      12       0       0       4       8
 10        6      12       3       6       0       0
 11        0       0       0       0       0       0
************************************************************************
SCENARIOS:
------------------------------------------------------------------------
RESOURCE k = 1
s = 1: (0, 128, 16, 49, 102, 54, 86, 22, 46, 31, 28, 0)
s = 2: (0, 126, 20, 37, 78, 62, 107, 23, 76, 38, 35, 0)
s = 3: (0, 168, 15, 40, 41, 47, 87, 28, 38, 37, 16, 0)
s = 4: (0, 97, 14, 50, 58, 53, 125, 25, 54, 56, 30, 0)
s = 5: (0, 98, 14, 39, 61, 35, 48, 25, 54, 47, 32, 0)
s = 6: (0, 82, 22, 38, 61, 50, 108, 24, 54, 56, 27, 0)
s = 7: (0, 92, 16, 66, 76, 31, 74, 22, 45, 49, 24, 0)
s = 8: (0, 123, 11, 57, 63, 43, 82, 23, 82, 49, 28, 0)
s = 9: (0, 100, 15, 39, 93, 56, 74, 26, 75, 88, 15, 0)
s = 10: (0, 69, 13, 30, 53, 50, 165, 18, 57, 29, 25, 0)
s = 11: (0, 98, 17, 37, 93, 37, 63, 26, 56, 51, 22, 0)
s = 12: (0, 113, 9, 46, 71, 49, 61, 18, 34, 35, 27, 0)
s = 13: (0, 114, 9, 42, 104, 47, 75, 19, 45, 59, 26, 0)
s = 14: (0, 161, 9, 46, 55, 60, 53, 15, 58, 66, 34, 0)
s = 15: (0, 73, 17, 41, 52, 58, 75, 19, 90, 65, 33, 0)
s = 16: (0, 81, 19, 50, 45, 42, 57, 14, 69, 84, 24, 0)
s = 17: (0, 72, 9, 64, 68, 53, 63, 13, 71, 49, 28, 0)
s = 18: (0, 87, 16, 84, 75, 70, 95, 18, 58, 28, 24, 0)
s = 19: (0, 86, 11, 54, 115, 53, 76, 19, 57, 44, 13, 0)
s = 20: (0, 120, 13, 64, 78, 59, 69, 19, 45, 43, 20, 0)
s = 21: (0, 73, 15, 51, 96, 72, 74, 13, 59, 39, 26, 0)
s = 22: (0, 110, 10, 63, 71, 34, 56, 22, 54, 53, 41, 0)
s = 23: (0, 102, 10, 55, 59, 42, 75, 19, 92, 46, 32, 0)
s = 24: (0, 69, 16, 67, 62, 45, 97, 21, 53, 34, 32, 0)
s = 25: (0, 192, 9, 46, 83, 40, 58, 24, 72, 53, 31, 0)
s = 26: (0, 71, 19, 60, 83, 48, 117, 29, 63, 44, 20, 0)
s = 27: (0, 107, 19, 33, 72, 62, 93, 22, 48, 66, 17, 0)
s = 28: (0, 139, 10, 51, 70, 45, 139, 16, 103, 33, 24, 0)
s = 29: (0, 90, 11, 77, 66, 70, 55, 16, 60, 55, 19, 0)
s = 30: (0, 118, 12, 35, 88, 34, 60, 22, 54, 44, 21, 0)
s = 31: (0, 101, 11, 70, 127, 59, 157, 20, 62, 39, 19, 0)
s = 32: (0, 130, 11, 59, 66, 79, 64, 25, 51, 48, 28, 0)
s = 33: (0, 155, 10, 62, 72, 54, 110, 12, 41, 64, 21, 0)
s = 34: (0, 133, 22, 42, 67, 61, 86, 27, 92, 31, 17, 0)
s = 35: (0, 130, 19, 49, 118, 54, 114, 25, 54, 49, 17, 0)
s = 36: (0, 124, 9, 42, 77, 28, 92, 26, 43, 56, 21, 0)
s = 37: (0, 78, 15, 68, 72, 60, 72, 10, 60, 31, 26, 0)
s = 38: (0, 108, 13, 33, 43, 87, 70, 22, 75, 31, 18, 0)
s = 39: (0, 123, 9, 85, 77, 42, 125, 19, 56, 32, 29, 0)
s = 40: (0, 102, 14, 55, 88, 80, 50, 18, 45, 53, 21, 0)
s = 41: (0, 133, 15, 42, 56, 53, 76, 13, 47, 57, 23, 0)
s = 42: (0, 125, 13, 46, 76, 55, 70, 13, 70, 58, 36, 0)
s = 43: (0, 118, 13, 61, 43, 38, 66, 19, 48, 39, 22, 0)
s = 44: (0, 77, 20, 83, 135, 56, 56, 12, 81, 36, 23, 0)
s = 45: (0, 68, 18, 43, 50, 54, 73, 18, 59, 47, 29, 0)
s = 46: (0, 101, 16, 36, 58, 48, 46, 14, 64, 49, 27, 0)
s = 47: (0, 82, 20, 67, 92, 88, 80, 14, 54, 54, 28, 0)
s = 48: (0, 110, 16, 57, 77, 66, 119, 20, 82, 41, 23, 0)
s = 49: (0, 80, 19, 73, 60, 86, 61, 17, 44, 46, 13, 0)
s = 50: (0, 167, 8, 46, 124, 45, 63, 19, 46, 88, 21, 0)
s = 51: (0, 103, 24, 88, 127, 33, 87, 27, 95, 39, 30, 0)
s = 52: (0, 121, 15, 44, 67, 64, 83, 13, 56, 36, 31, 0)
s = 53: (0, 85, 18, 55, 91, 59, 69, 26, 39, 47, 28, 0)
s = 54: (0, 86, 15, 57, 97, 57, 68, 17, 58, 64, 26, 0)
s = 55: (0, 93, 10, 40, 80, 50, 96, 21, 78, 30, 35, 0)
s = 56: (0, 120, 8, 76, 113, 40, 148, 18, 82, 55, 27, 0)
s = 57: (0, 127, 11, 52, 85, 61, 118, 10, 39, 49, 34, 0)
s = 58: (0, 91, 13, 58, 70, 42, 74, 14, 78, 36, 22, 0)
s = 59: (0, 125, 11, 60, 91, 40, 93, 17, 36, 35, 36, 0)
s = 60: (0, 151, 14, 54, 104, 53, 86, 13, 67, 56, 24, 0)
s = 61: (0, 113, 14, 70, 84, 47, 60, 15, 92, 54, 21, 0)
s = 62: (0, 138, 8, 33, 85, 50, 100, 24, 54, 51, 25, 0)
s = 63: (0, 182, 18, 94, 58, 52, 109, 18, 46, 42, 38, 0)
s = 64: (0, 139, 18, 53, 71, 42, 95, 18, 53, 44, 16, 0)
s = 65: (0, 119, 16, 40, 50, 52, 94, 12, 44, 52, 18, 0)
s = 66: (0, 131, 14, 31, 130, 33, 118, 33, 65, 51, 24, 0)
s = 67: (0, 178, 12, 45, 112, 67, 67, 17, 69, 74, 33, 0)
s = 68: (0, 119, 11, 34, 85, 48, 100, 23, 66, 46, 23, 0)
s = 69: (0, 125, 19, 56, 94, 42, 62, 24, 61, 56, 18, 0)
s = 70: (0, 180, 12, 40, 59, 33, 85, 15, 37, 34, 19, 0)
s = 71: (0, 81, 9, 55, 76, 45, 53, 34, 62, 38, 23, 0)
s = 72: (0, 89, 10, 35, 59, 39, 72, 26, 68, 55, 30, 0)
s = 73: (0, 66, 11, 51, 84, 50, 124, 17, 50, 46, 19, 0)
s = 74: (0, 129, 8, 43, 86, 31, 62, 16, 70, 34, 21, 0)
s = 75: (0, 176, 14, 90, 54, 55, 118, 14, 49, 37, 26, 0)
s = 76: (0, 175, 22, 74, 66, 42, 89, 21, 44, 41, 20, 0)
s = 77: (0, 117, 16, 50, 75, 56, 83, 19, 63, 46, 28, 0)
s = 78: (0, 105, 11, 62, 81, 65, 72, 18, 53, 60, 18, 0)
s = 79: (0, 80, 20, 41, 45, 30, 126, 15, 75, 32, 16, 0)
s = 80: (0, 139, 12, 63, 124, 59, 84, 18, 109, 75, 17, 0)
s = 81: (0, 89, 18, 55, 81, 69, 57, 22, 89, 65, 27, 0)
s = 82: (0, 76, 18, 96, 55, 59, 77, 23, 81, 47, 21, 0)
s = 83: (0, 87, 16, 61, 112, 64, 74, 16, 45, 34, 17, 0)
s = 84: (0, 86, 10, 84, 82, 40, 103, 18, 90, 38, 16, 0)
s = 85: (0, 68, 15, 40, 75, 60, 59, 18, 71, 46, 28, 0)
s = 86: (0, 104, 16, 56, 99, 43, 84, 14, 64, 43, 28, 0)
s = 87: (0, 126, 13, 39, 65, 43, 65, 15, 54, 63, 32, 0)
s = 88: (0, 177, 15, 47, 52, 80, 103, 23, 73, 56, 28, 0)
s = 89: (0, 71, 10, 32, 85, 33, 58, 25, 53, 38, 23, 0)
s = 90: (0, 102, 12, 28, 58, 28, 121, 17, 45, 67, 16, 0)
s = 91: (0, 70, 12, 51, 98, 68, 54, 17, 52, 36, 19, 0)
s = 92: (0, 90, 8, 67, 88, 49, 77, 24, 51, 29, 20, 0)
s = 93: (0, 98, 11, 43, 59, 40, 95, 18, 86, 67, 20, 0)
s = 94: (0, 100, 13, 40, 107, 43, 60, 27, 67, 41, 14, 0)
s = 95: (0, 160, 16, 60, 51, 53, 123, 23, 82, 74, 29, 0)
s = 96: (0, 59, 13, 77, 49, 64, 79, 12, 65, 60, 23, 0)
s = 97: (0, 117, 11, 32, 55, 70, 51, 22, 44, 80, 25, 0)
s = 98: (0, 116, 10, 56, 52, 38, 148, 14, 81, 53, 23, 0)
s = 99: (0, 105, 13, 61, 54, 63, 117, 23, 52, 47, 21, 0)
s = 100: (0, 125, 15, 85, 80, 45, 76, 26, 61, 78, 20, 0)
s = 101: (0, 133, 11, 47, 56, 45, 131, 20, 79, 47, 30, 0)
s = 102: (0, 108, 8, 29, 86, 36, 93, 22, 61, 46, 27, 0)
s = 103: (0, 114, 18, 46, 62, 55, 90, 16, 61, 53, 39, 0)
s = 104: (0, 197, 14, 34, 59, 33, 52, 19, 63, 61, 22, 0)
s = 105: (0, 159, 14, 49, 79, 33, 65, 28, 96, 39, 20, 0)
s = 106: (0, 132, 16, 88, 77, 41, 93, 15, 76, 45, 18, 0)
s = 107: (0, 90, 17, 66, 55, 62, 83, 20, 46, 39, 19, 0)
s = 108: (0, 82, 10, 35, 55, 49, 100, 22, 63, 34, 33, 0)
s = 109: (0, 93, 13, 66, 107, 57, 104, 15, 54, 40, 30, 0)
s = 110: (0, 109, 14, 58, 45, 30, 88, 19, 56, 64, 23, 0)
s = 111: (0, 64, 17, 79, 85, 51, 90, 10, 47, 65, 21, 0)
s = 112: (0, 87, 14, 34, 50, 47, 53, 14, 76, 48, 31, 0)
s = 113: (0, 152, 17, 73, 66, 67, 107, 13, 64, 33, 24, 0)
s = 114: (0, 110, 15, 44, 53, 41, 80, 13, 75, 54, 28, 0)
s = 115: (0, 76, 15, 35, 58, 38, 56, 27, 52, 51, 29, 0)
s = 116: (0, 122, 12, 60, 69, 45, 108, 15, 93, 27, 23, 0)
s = 117: (0, 78, 12, 38, 88, 41, 66, 14, 50, 27, 25, 0)
s = 118: (0, 98, 16, 41, 74, 44, 67, 19, 75, 42, 20, 0)
s = 119: (0, 118, 17, 39, 80, 74, 121, 24, 49, 45, 21, 0)
s = 120: (0, 165, 13, 43, 59, 32, 72, 11, 52, 61, 40, 0)
s = 121: (0, 79, 17, 39, 52, 40, 67, 15, 48, 27, 31, 0)
s = 122: (0, 89, 10, 71, 59, 44, 89, 24, 73, 44, 14, 0)
s = 123: (0, 92, 14, 75, 57, 40, 76, 15, 66, 52, 29, 0)
s = 124: (0, 181, 10, 58, 51, 43, 79, 23, 62, 34, 27, 0)
s = 125: (0, 121, 11, 59, 76, 62, 68, 11, 46, 55, 33, 0)
s = 126: (0, 126, 11, 52, 103, 74, 67, 20, 51, 47, 19, 0)
s = 127: (0, 98, 13, 56, 63, 55, 130, 17, 57, 27, 30, 0)
s = 128: (0, 119, 19, 67, 69, 33, 73, 19, 65, 54, 26, 0)
s = 129: (0, 127, 13, 70, 99, 87, 75, 13, 46, 34, 30, 0)
s = 130: (0, 128, 9, 65, 67, 69, 81, 23, 61, 30, 29, 0)
s = 131: (0, 128, 13, 80, 45, 60, 72, 23, 53, 71, 15, 0)
s = 132: (0, 125, 13, 52, 69, 41, 128, 16, 44, 58, 21, 0)
s = 133: (0, 184, 12, 61, 111, 49, 79, 16, 66, 76, 34, 0)
s = 134: (0, 110, 22, 49, 63, 59, 73, 19, 46, 56, 23, 0)
s = 135: (0, 62, 12, 60, 59, 45, 81, 20, 63, 61, 19, 0)
s = 136: (0, 106, 10, 47, 78, 53, 121, 16, 76, 30, 37, 0)
s = 137: (0, 139, 8, 71, 68, 44, 66, 21, 64, 34, 25, 0)
s = 138: (0, 89, 19, 69, 107, 77, 82, 14, 50, 45, 20, 0)
s = 139: (0, 103, 22, 62, 111, 43, 86, 22, 63, 51, 23, 0)
s = 140: (0, 104, 10, 42, 74, 81, 95, 19, 32, 40, 19, 0)
s = 141: (0, 136, 20, 36, 51, 58, 130, 24, 67, 61, 17, 0)
s = 142: (0, 92, 14, 57, 60, 69, 85, 26, 48, 54, 25, 0)
s = 143: (0, 100, 18, 47, 45, 58, 87, 22, 82, 68, 20, 0)
s = 144: (0, 108, 8, 43, 87, 43, 78, 16, 55, 50, 19, 0)
s = 145: (0, 143, 14, 66, 77, 44, 59, 15, 54, 65, 33, 0)
s = 146: (0, 110, 10, 59, 96, 80, 51, 21, 38, 41, 17, 0)
s = 147: (0, 157, 16, 30, 60, 61, 80, 16, 52, 52, 20, 0)
s = 148: (0, 149, 14, 44, 112, 32, 76, 16, 79, 68, 22, 0)
s = 149: (0, 65, 16, 35, 62, 77, 148, 24, 92, 34, 23, 0)
s = 150: (0, 150, 15, 58, 95, 58, 64, 16, 67, 75, 23, 0)
s = 151: (0, 102, 11, 53, 105, 45, 84, 19, 49, 50, 35, 0)
s = 152: (0, 85, 10, 54, 92, 84, 67, 17, 61, 42, 27, 0)
s = 153: (0, 150, 13, 70, 68, 48, 125, 20, 52, 40, 34, 0)
s = 154: (0, 89, 18, 37, 56, 40, 69, 24, 63, 26, 20, 0)
s = 155: (0, 161, 11, 46, 111, 38, 122, 21, 81, 61, 22, 0)
s = 156: (0, 142, 12, 49, 75, 40, 53, 10, 80, 37, 26, 0)
s = 157: (0, 139, 15, 55, 67, 57, 80, 12, 45, 33, 37, 0)
s = 158: (0, 89, 14, 49, 119, 73, 102, 17, 58, 37, 27, 0)
s = 159: (0, 167, 13, 55, 100, 35, 80, 21, 72, 59, 34, 0)
s = 160: (0, 101, 19, 42, 85, 47, 108, 16, 53, 35, 29, 0)
s = 161: (0, 85, 12, 49, 76, 51, 86, 19, 78, 58, 29, 0)
s = 162: (0, 73, 11, 43, 83, 89, 97, 25, 50, 34, 34, 0)
s = 163: (0, 116, 11, 38, 62, 42, 49, 26, 52, 40, 21, 0)
s = 164: (0, 87, 16, 60, 93, 58, 94, 31, 70, 46, 22, 0)
s = 165: (0, 59, 12, 43, 77, 46, 63, 16, 37, 59, 17, 0)
s = 166: (0, 103, 12, 53, 44, 32, 104, 18, 52, 49, 26, 0)
s = 167: (0, 67, 16, 60, 118, 44, 130, 11, 104, 48, 15, 0)
s = 168: (0, 164, 15, 63, 88, 59, 118, 16, 97, 57, 21, 0)
s = 169: (0, 197, 14, 41, 65, 40, 66, 11, 68, 36, 25, 0)
s = 170: (0, 113, 14, 37, 45, 39, 87, 28, 62, 50, 21, 0)
s = 171: (0, 82, 8, 82, 100, 54, 83, 13, 82, 53, 26, 0)
s = 172: (0, 113, 20, 82, 62, 44, 93, 15, 49, 39, 25, 0)
s = 173: (0, 88, 16, 57, 66, 45, 67, 17, 43, 42, 25, 0)
s = 174: (0, 100, 22, 65, 79, 40, 52, 18, 56, 54, 14, 0)
s = 175: (0, 92, 16, 37, 85, 57, 103, 22, 67, 31, 16, 0)
s = 176: (0, 110, 15, 44, 44, 57, 99, 23, 62, 40, 24, 0)
s = 177: (0, 81, 9, 57, 84, 71, 99, 16, 85, 83, 19, 0)
s = 178: (0, 96, 13, 62, 89, 77, 53, 12, 72, 68, 27, 0)
s = 179: (0, 128, 14, 94, 74, 44, 76, 19, 70, 53, 15, 0)
s = 180: (0, 77, 16, 47, 92, 45, 83, 18, 98, 69, 22, 0)
s = 181: (0, 113, 12, 63, 70, 59, 59, 17, 55, 31, 33, 0)
s = 182: (0, 96, 11, 63, 94, 62, 76, 11, 50, 31, 26, 0)
s = 183: (0, 111, 10, 58, 43, 58, 110, 15, 84, 41, 22, 0)
s = 184: (0, 115, 15, 43, 121, 53, 66, 28, 49, 43, 21, 0)
s = 185: (0, 102, 20, 36, 60, 62, 124, 29, 60, 45, 30, 0)
s = 186: (0, 177, 19, 51, 129, 35, 79, 19, 51, 56, 26, 0)
s = 187: (0, 131, 10, 51, 67, 74, 51, 34, 43, 33, 34, 0)
s = 188: (0, 116, 15, 60, 73, 41, 102, 24, 69, 67, 23, 0)
s = 189: (0, 170, 11, 67, 76, 65, 104, 23, 51, 39, 22, 0)
s = 190: (0, 68, 16, 42, 50, 48, 102, 11, 79, 56, 16, 0)
s = 191: (0, 99, 19, 36, 86, 39, 93, 11, 77, 46, 17, 0)
s = 192: (0, 166, 14, 45, 89, 56, 104, 30, 86, 47, 34, 0)
s = 193: (0, 106, 11, 45, 110, 56, 66, 17, 62, 36, 35, 0)
s = 194: (0, 93, 9, 57, 75, 51, 71, 18, 73, 92, 21, 0)
s = 195: (0, 196, 8, 62, 90, 53, 113, 23, 77, 32, 21, 0)
s = 196: (0, 113, 17, 69, 78, 68, 78, 22, 63, 29, 29, 0)
s = 197: (0, 140, 10, 65, 49, 48, 103, 17, 43, 46, 14, 0)
s = 198: (0, 148, 14, 61, 58, 30, 58, 23, 52, 44, 24, 0)
s = 199: (0, 60, 9, 73, 90, 66, 112, 13, 70, 49, 15, 0)
s = 200: (0, 69, 8, 74, 58, 40, 68, 15, 51, 51, 26, 0)
------------------------------------------------------------------------
RESOURCE k = 2
s = 1: (0, 0, 11, 0, 0, 29, 36, 10, 0, 0, 14, 0)
s = 2: (0, 0, 14, 0, 0, 34, 44, 10, 0, 0, 18, 0)
s = 3: (0, 0, 10, 0, 0, 25, 36, 13, 0, 0, 8, 0)
s = 4: (0, 0, 10, 0, 0, 29, 52, 11, 0, 0, 15, 0)
s = 5: (0, 0, 10, 0, 0, 19, 20, 11, 0, 0, 16, 0)
s = 6: (0, 0, 15, 0, 0, 27, 45, 11, 0, 0, 14, 0)
s = 7: (0, 0, 11, 0, 0, 17, 31, 10, 0, 0, 12, 0)
s = 8: (0, 0, 8, 0, 0, 23, 34, 11, 0, 0, 14, 0)
s = 9: (0, 0, 11, 0, 0, 31, 31, 12, 0, 0, 8, 0)
s = 10: (0, 0, 9, 0, 0, 27, 68, 8, 0, 0, 13, 0)
s = 11: (0, 0, 12, 0, 0, 20, 26, 12, 0, 0, 11, 0)
s = 12: (0, 0, 7, 0, 0, 27, 25, 8, 0, 0, 14, 0)
s = 13: (0, 0, 7, 0, 0, 25, 31, 9, 0, 0, 13, 0)
s = 14: (0, 0, 6, 0, 0, 33, 22, 7, 0, 0, 17, 0)
s = 15: (0, 0, 12, 0, 0, 32, 31, 9, 0, 0, 17, 0)
s = 16: (0, 0, 13, 0, 0, 23, 24, 6, 0, 0, 12, 0)
s = 17: (0, 0, 7, 0, 0, 29, 26, 6, 0, 0, 14, 0)
s = 18: (0, 0, 11, 0, 0, 38, 39, 8, 0, 0, 12, 0)
s = 19: (0, 0, 8, 0, 0, 29, 32, 9, 0, 0, 7, 0)
s = 20: (0, 0, 9, 0, 0, 32, 29, 9, 0, 0, 10, 0)
s = 21: (0, 0, 11, 0, 0, 39, 31, 6, 0, 0, 13, 0)
s = 22: (0, 0, 7, 0, 0, 18, 23, 10, 0, 0, 21, 0)
s = 23: (0, 0, 7, 0, 0, 23, 31, 9, 0, 0, 16, 0)
s = 24: (0, 0, 12, 0, 0, 25, 40, 10, 0, 0, 16, 0)
s = 25: (0, 0, 7, 0, 0, 22, 24, 11, 0, 0, 16, 0)
s = 26: (0, 0, 13, 0, 0, 26, 49, 13, 0, 0, 10, 0)
s = 27: (0, 0, 13, 0, 0, 34, 39, 10, 0, 0, 9, 0)
s = 28: (0, 0, 7, 0, 0, 24, 57, 8, 0, 0, 12, 0)
s = 29: (0, 0, 8, 0, 0, 38, 23, 7, 0, 0, 10, 0)
s = 30: (0, 0, 8, 0, 0, 18, 25, 10, 0, 0, 11, 0)
s = 31: (0, 0, 8, 0, 0, 32, 65, 9, 0, 0, 10, 0)
s = 32: (0, 0, 8, 0, 0, 43, 27, 11, 0, 0, 14, 0)
s = 33: (0, 0, 7, 0, 0, 29, 46, 6, 0, 0, 11, 0)
s = 34: (0, 0, 15, 0, 0, 33, 36, 12, 0, 0, 9, 0)
s = 35: (0, 0, 13, 0, 0, 29, 47, 11, 0, 0, 9, 0)
s = 36: (0, 0, 6, 0, 0, 15, 38, 12, 0, 0, 11, 0)
s = 37: (0, 0, 10, 0, 0, 33, 30, 5, 0, 0, 13, 0)
s = 38: (0, 0, 9, 0, 0, 47, 29, 10, 0, 0, 9, 0)
s = 39: (0, 0, 6, 0, 0, 23, 52, 9, 0, 0, 15, 0)
s = 40: (0, 0, 10, 0, 0, 43, 21, 8, 0, 0, 11, 0)
s = 41: (0, 0, 10, 0, 0, 29, 31, 6, 0, 0, 12, 0)
s = 42: (0, 0, 9, 0, 0, 30, 29, 6, 0, 0, 18, 0)
s = 43: (0, 0, 9, 0, 0, 20, 28, 9, 0, 0, 11, 0)
s = 44: (0, 0, 14, 0, 0, 30, 23, 6, 0, 0, 12, 0)
s = 45: (0, 0, 12, 0, 0, 30, 30, 8, 0, 0, 15, 0)
s = 46: (0, 0, 11, 0, 0, 26, 19, 7, 0, 0, 14, 0)
s = 47: (0, 0, 14, 0, 0, 48, 33, 7, 0, 0, 14, 0)
s = 48: (0, 0, 11, 0, 0, 36, 49, 9, 0, 0, 12, 0)
s = 49: (0, 0, 13, 0, 0, 47, 26, 8, 0, 0, 7, 0)
s = 50: (0, 0, 6, 0, 0, 24, 26, 9, 0, 0, 11, 0)
s = 51: (0, 0, 17, 0, 0, 18, 36, 12, 0, 0, 15, 0)
s = 52: (0, 0, 11, 0, 0, 35, 34, 6, 0, 0, 16, 0)
s = 53: (0, 0, 13, 0, 0, 32, 29, 12, 0, 0, 14, 0)
s = 54: (0, 0, 11, 0, 0, 31, 28, 8, 0, 0, 13, 0)
s = 55: (0, 0, 7, 0, 0, 27, 40, 10, 0, 0, 18, 0)
s = 56: (0, 0, 6, 0, 0, 22, 61, 8, 0, 0, 14, 0)
s = 57: (0, 0, 7, 0, 0, 33, 49, 5, 0, 0, 17, 0)
s = 58: (0, 0, 9, 0, 0, 23, 31, 6, 0, 0, 11, 0)
s = 59: (0, 0, 8, 0, 0, 22, 39, 8, 0, 0, 18, 0)
s = 60: (0, 0, 10, 0, 0, 29, 36, 6, 0, 0, 12, 0)
s = 61: (0, 0, 10, 0, 0, 26, 25, 7, 0, 0, 11, 0)
s = 62: (0, 0, 6, 0, 0, 27, 42, 11, 0, 0, 13, 0)
s = 63: (0, 0, 13, 0, 0, 28, 45, 8, 0, 0, 19, 0)
s = 64: (0, 0, 13, 0, 0, 23, 39, 8, 0, 0, 8, 0)
s = 65: (0, 0, 11, 0, 0, 28, 39, 6, 0, 0, 9, 0)
s = 66: (0, 0, 10, 0, 0, 18, 49, 15, 0, 0, 12, 0)
s = 67: (0, 0, 8, 0, 0, 36, 28, 8, 0, 0, 17, 0)
s = 68: (0, 0, 8, 0, 0, 26, 41, 11, 0, 0, 12, 0)
s = 69: (0, 0, 13, 0, 0, 23, 26, 11, 0, 0, 9, 0)
s = 70: (0, 0, 8, 0, 0, 18, 35, 7, 0, 0, 10, 0)
s = 71: (0, 0, 6, 0, 0, 24, 22, 15, 0, 0, 12, 0)
s = 72: (0, 0, 7, 0, 0, 21, 30, 12, 0, 0, 15, 0)
s = 73: (0, 0, 8, 0, 0, 27, 51, 8, 0, 0, 10, 0)
s = 74: (0, 0, 6, 0, 0, 17, 26, 7, 0, 0, 11, 0)
s = 75: (0, 0, 10, 0, 0, 30, 49, 7, 0, 0, 13, 0)
s = 76: (0, 0, 15, 0, 0, 23, 37, 9, 0, 0, 10, 0)
s = 77: (0, 0, 11, 0, 0, 30, 34, 9, 0, 0, 14, 0)
s = 78: (0, 0, 8, 0, 0, 35, 30, 8, 0, 0, 9, 0)
s = 79: (0, 0, 14, 0, 0, 16, 52, 7, 0, 0, 8, 0)
s = 80: (0, 0, 8, 0, 0, 32, 35, 8, 0, 0, 9, 0)
s = 81: (0, 0, 13, 0, 0, 37, 24, 10, 0, 0, 14, 0)
s = 82: (0, 0, 13, 0, 0, 32, 32, 10, 0, 0, 11, 0)
s = 83: (0, 0, 11, 0, 0, 35, 31, 7, 0, 0, 9, 0)
s = 84: (0, 0, 7, 0, 0, 22, 43, 8, 0, 0, 8, 0)
s = 85: (0, 0, 11, 0, 0, 33, 25, 8, 0, 0, 14, 0)
s = 86: (0, 0, 11, 0, 0, 23, 35, 7, 0, 0, 14, 0)
s = 87: (0, 0, 9, 0, 0, 23, 27, 7, 0, 0, 16, 0)
s = 88: (0, 0, 11, 0, 0, 43, 43, 10, 0, 0, 14, 0)
s = 89: (0, 0, 7, 0, 0, 18, 24, 11, 0, 0, 12, 0)
s = 90: (0, 0, 9, 0, 0, 15, 50, 8, 0, 0, 8, 0)
s = 91: (0, 0, 9, 0, 0, 37, 22, 8, 0, 0, 10, 0)
s = 92: (0, 0, 6, 0, 0, 27, 32, 11, 0, 0, 10, 0)
s = 93: (0, 0, 8, 0, 0, 22, 39, 8, 0, 0, 10, 0)
s = 94: (0, 0, 9, 0, 0, 23, 25, 12, 0, 0, 7, 0)
s = 95: (0, 0, 11, 0, 0, 29, 51, 11, 0, 0, 15, 0)
s = 96: (0, 0, 9, 0, 0, 35, 33, 6, 0, 0, 12, 0)
s = 97: (0, 0, 7, 0, 0, 38, 21, 10, 0, 0, 13, 0)
s = 98: (0, 0, 7, 0, 0, 20, 61, 6, 0, 0, 12, 0)
s = 99: (0, 0, 9, 0, 0, 34, 48, 10, 0, 0, 11, 0)
s = 100: (0, 0, 10, 0, 0, 24, 31, 12, 0, 0, 10, 0)
s = 101: (0, 0, 8, 0, 0, 25, 54, 9, 0, 0, 15, 0)
s = 102: (0, 0, 6, 0, 0, 20, 38, 10, 0, 0, 14, 0)
s = 103: (0, 0, 13, 0, 0, 30, 37, 7, 0, 0, 20, 0)
s = 104: (0, 0, 10, 0, 0, 18, 22, 9, 0, 0, 11, 0)
s = 105: (0, 0, 10, 0, 0, 18, 27, 13, 0, 0, 10, 0)
s = 106: (0, 0, 11, 0, 0, 22, 39, 7, 0, 0, 9, 0)
s = 107: (0, 0, 12, 0, 0, 33, 34, 9, 0, 0, 10, 0)
s = 108: (0, 0, 7, 0, 0, 26, 41, 10, 0, 0, 17, 0)
s = 109: (0, 0, 9, 0, 0, 31, 43, 7, 0, 0, 15, 0)
s = 110: (0, 0, 10, 0, 0, 16, 36, 9, 0, 0, 12, 0)
s = 111: (0, 0, 12, 0, 0, 28, 37, 5, 0, 0, 11, 0)
s = 112: (0, 0, 10, 0, 0, 26, 22, 7, 0, 0, 16, 0)
s = 113: (0, 0, 12, 0, 0, 36, 44, 6, 0, 0, 12, 0)
s = 114: (0, 0, 11, 0, 0, 23, 33, 6, 0, 0, 14, 0)
s = 115: (0, 0, 11, 0, 0, 21, 23, 12, 0, 0, 15, 0)
s = 116: (0, 0, 8, 0, 0, 25, 45, 7, 0, 0, 12, 0)
s = 117: (0, 0, 9, 0, 0, 22, 27, 6, 0, 0, 13, 0)
s = 118: (0, 0, 11, 0, 0, 24, 28, 9, 0, 0, 10, 0)
s = 119: (0, 0, 12, 0, 0, 40, 50, 11, 0, 0, 11, 0)
s = 120: (0, 0, 9, 0, 0, 18, 30, 5, 0, 0, 20, 0)
s = 121: (0, 0, 12, 0, 0, 22, 28, 7, 0, 0, 16, 0)
s = 122: (0, 0, 7, 0, 0, 24, 37, 11, 0, 0, 7, 0)
s = 123: (0, 0, 10, 0, 0, 22, 32, 7, 0, 0, 15, 0)
s = 124: (0, 0, 7, 0, 0, 23, 33, 10, 0, 0, 14, 0)
s = 125: (0, 0, 8, 0, 0, 34, 28, 5, 0, 0, 17, 0)
s = 126: (0, 0, 8, 0, 0, 40, 28, 9, 0, 0, 10, 0)
s = 127: (0, 0, 9, 0, 0, 30, 54, 8, 0, 0, 15, 0)
s = 128: (0, 0, 13, 0, 0, 18, 30, 9, 0, 0, 13, 0)
s = 129: (0, 0, 9, 0, 0, 47, 31, 6, 0, 0, 15, 0)
s = 130: (0, 0, 7, 0, 0, 37, 34, 10, 0, 0, 15, 0)
s = 131: (0, 0, 9, 0, 0, 32, 30, 10, 0, 0, 8, 0)
s = 132: (0, 0, 9, 0, 0, 22, 53, 7, 0, 0, 11, 0)
s = 133: (0, 0, 8, 0, 0, 27, 33, 7, 0, 0, 17, 0)
s = 134: (0, 0, 16, 0, 0, 32, 30, 9, 0, 0, 12, 0)
s = 135: (0, 0, 8, 0, 0, 25, 34, 9, 0, 0, 10, 0)
s = 136: (0, 0, 7, 0, 0, 29, 50, 7, 0, 0, 19, 0)
s = 137: (0, 0, 6, 0, 0, 24, 28, 10, 0, 0, 13, 0)
s = 138: (0, 0, 13, 0, 0, 42, 34, 7, 0, 0, 10, 0)
s = 139: (0, 0, 16, 0, 0, 24, 36, 10, 0, 0, 12, 0)
s = 140: (0, 0, 7, 0, 0, 44, 39, 9, 0, 0, 10, 0)
s = 141: (0, 0, 14, 0, 0, 31, 54, 11, 0, 0, 9, 0)
s = 142: (0, 0, 10, 0, 0, 37, 35, 12, 0, 0, 13, 0)
s = 143: (0, 0, 12, 0, 0, 31, 36, 10, 0, 0, 10, 0)
s = 144: (0, 0, 6, 0, 0, 24, 33, 8, 0, 0, 10, 0)
s = 145: (0, 0, 10, 0, 0, 24, 24, 7, 0, 0, 17, 0)
s = 146: (0, 0, 7, 0, 0, 43, 21, 10, 0, 0, 9, 0)
s = 147: (0, 0, 11, 0, 0, 33, 33, 7, 0, 0, 10, 0)
s = 148: (0, 0, 10, 0, 0, 17, 32, 7, 0, 0, 11, 0)
s = 149: (0, 0, 11, 0, 0, 41, 61, 11, 0, 0, 12, 0)
s = 150: (0, 0, 11, 0, 0, 32, 27, 8, 0, 0, 12, 0)
s = 151: (0, 0, 7, 0, 0, 24, 35, 9, 0, 0, 18, 0)
s = 152: (0, 0, 7, 0, 0, 45, 28, 8, 0, 0, 14, 0)
s = 153: (0, 0, 9, 0, 0, 26, 52, 9, 0, 0, 17, 0)
s = 154: (0, 0, 12, 0, 0, 22, 29, 11, 0, 0, 10, 0)
s = 155: (0, 0, 8, 0, 0, 21, 51, 10, 0, 0, 11, 0)
s = 156: (0, 0, 8, 0, 0, 22, 22, 5, 0, 0, 13, 0)
s = 157: (0, 0, 11, 0, 0, 31, 33, 6, 0, 0, 19, 0)
s = 158: (0, 0, 10, 0, 0, 40, 42, 8, 0, 0, 14, 0)
s = 159: (0, 0, 9, 0, 0, 19, 33, 10, 0, 0, 17, 0)
s = 160: (0, 0, 13, 0, 0, 26, 45, 7, 0, 0, 15, 0)
s = 161: (0, 0, 9, 0, 0, 28, 36, 9, 0, 0, 15, 0)
s = 162: (0, 0, 8, 0, 0, 48, 40, 11, 0, 0, 17, 0)
s = 163: (0, 0, 8, 0, 0, 23, 21, 12, 0, 0, 11, 0)
s = 164: (0, 0, 11, 0, 0, 31, 39, 14, 0, 0, 11, 0)
s = 165: (0, 0, 8, 0, 0, 25, 26, 8, 0, 0, 9, 0)
s = 166: (0, 0, 8, 0, 0, 17, 43, 8, 0, 0, 13, 0)
s = 167: (0, 0, 11, 0, 0, 24, 54, 5, 0, 0, 8, 0)
s = 168: (0, 0, 11, 0, 0, 32, 49, 7, 0, 0, 11, 0)
s = 169: (0, 0, 10, 0, 0, 22, 28, 5, 0, 0, 13, 0)
s = 170: (0, 0, 10, 0, 0, 21, 36, 13, 0, 0, 11, 0)
s = 171: (0, 0, 6, 0, 0, 29, 35, 6, 0, 0, 13, 0)
s = 172: (0, 0, 14, 0, 0, 24, 39, 7, 0, 0, 13, 0)
s = 173: (0, 0, 11, 0, 0, 24, 28, 8, 0, 0, 13, 0)
s = 174: (0, 0, 15, 0, 0, 22, 22, 8, 0, 0, 7, 0)
s = 175: (0, 0, 11, 0, 0, 31, 43, 10, 0, 0, 8, 0)
s = 176: (0, 0, 10, 0, 0, 31, 41, 10, 0, 0, 12, 0)
s = 177: (0, 0, 7, 0, 0, 39, 41, 7, 0, 0, 10, 0)
s = 178: (0, 0, 9, 0, 0, 42, 22, 6, 0, 0, 14, 0)
s = 179: (0, 0, 10, 0, 0, 24, 32, 9, 0, 0, 8, 0)
s = 180: (0, 0, 11, 0, 0, 25, 35, 8, 0, 0, 11, 0)
s = 181: (0, 0, 8, 0, 0, 32, 25, 8, 0, 0, 17, 0)
s = 182: (0, 0, 8, 0, 0, 33, 31, 5, 0, 0, 13, 0)
s = 183: (0, 0, 7, 0, 0, 32, 45, 7, 0, 0, 11, 0)
s = 184: (0, 0, 11, 0, 0, 29, 27, 13, 0, 0, 11, 0)
s = 185: (0, 0, 14, 0, 0, 33, 51, 13, 0, 0, 15, 0)
s = 186: (0, 0, 14, 0, 0, 19, 33, 9, 0, 0, 13, 0)
s = 187: (0, 0, 7, 0, 0, 40, 21, 15, 0, 0, 17, 0)
s = 188: (0, 0, 10, 0, 0, 22, 42, 11, 0, 0, 12, 0)
s = 189: (0, 0, 8, 0, 0, 35, 43, 11, 0, 0, 11, 0)
s = 190: (0, 0, 11, 0, 0, 26, 42, 5, 0, 0, 8, 0)
s = 191: (0, 0, 13, 0, 0, 21, 38, 5, 0, 0, 9, 0)
s = 192: (0, 0, 10, 0, 0, 30, 43, 14, 0, 0, 17, 0)
s = 193: (0, 0, 8, 0, 0, 31, 28, 8, 0, 0, 18, 0)
s = 194: (0, 0, 7, 0, 0, 28, 30, 8, 0, 0, 11, 0)
s = 195: (0, 0, 6, 0, 0, 29, 47, 10, 0, 0, 11, 0)
s = 196: (0, 0, 12, 0, 0, 37, 33, 10, 0, 0, 15, 0)
s = 197: (0, 0, 7, 0, 0, 26, 43, 8, 0, 0, 7, 0)
s = 198: (0, 0, 10, 0, 0, 16, 24, 10, 0, 0, 12, 0)
s = 199: (0, 0, 7, 0, 0, 36, 47, 6, 0, 0, 8, 0)
s = 200: (0, 0, 6, 0, 0, 22, 28, 7, 0, 0, 13, 0)
------------------------------------------------------------------------
RESOURCE k = 3
s = 1: (0, 56, 0, 17, 83, 0, 0, 0, 16, 21, 0, 0)
s = 2: (0, 55, 0, 13, 64, 0, 0, 0, 26, 25, 0, 0)
s = 3: (0, 74, 0, 14, 34, 0, 0, 0, 13, 25, 0, 0)
s = 4: (0, 43, 0, 17, 47, 0, 0, 0, 18, 38, 0, 0)
s = 5: (0, 43, 0, 13, 50, 0, 0, 0, 18, 31, 0, 0)
s = 6: (0, 36, 0, 13, 50, 0, 0, 0, 18, 38, 0, 0)
s = 7: (0, 40, 0, 22, 62, 0, 0, 0, 15, 33, 0, 0)
s = 8: (0, 54, 0, 19, 52, 0, 0, 0, 28, 33, 0, 0)
s = 9: (0, 44, 0, 13, 76, 0, 0, 0, 25, 59, 0, 0)
s = 10: (0, 31, 0, 10, 43, 0, 0, 0, 19, 19, 0, 0)
s = 11: (0, 43, 0, 13, 76, 0, 0, 0, 19, 34, 0, 0)
s = 12: (0, 50, 0, 16, 58, 0, 0, 0, 12, 23, 0, 0)
s = 13: (0, 50, 0, 14, 86, 0, 0, 0, 15, 39, 0, 0)
s = 14: (0, 71, 0, 16, 45, 0, 0, 0, 20, 44, 0, 0)
s = 15: (0, 32, 0, 14, 43, 0, 0, 0, 30, 44, 0, 0)
s = 16: (0, 36, 0, 17, 37, 0, 0, 0, 23, 56, 0, 0)
s = 17: (0, 32, 0, 22, 56, 0, 0, 0, 24, 33, 0, 0)
s = 18: (0, 38, 0, 28, 62, 0, 0, 0, 20, 19, 0, 0)
s = 19: (0, 38, 0, 18, 94, 0, 0, 0, 19, 29, 0, 0)
s = 20: (0, 53, 0, 22, 64, 0, 0, 0, 15, 29, 0, 0)
s = 21: (0, 32, 0, 17, 79, 0, 0, 0, 20, 26, 0, 0)
s = 22: (0, 48, 0, 21, 58, 0, 0, 0, 18, 35, 0, 0)
s = 23: (0, 45, 0, 19, 48, 0, 0, 0, 31, 31, 0, 0)
s = 24: (0, 30, 0, 23, 51, 0, 0, 0, 18, 23, 0, 0)
s = 25: (0, 84, 0, 16, 68, 0, 0, 0, 24, 35, 0, 0)
s = 26: (0, 31, 0, 20, 68, 0, 0, 0, 21, 30, 0, 0)
s = 27: (0, 47, 0, 11, 59, 0, 0, 0, 16, 44, 0, 0)
s = 28: (0, 61, 0, 17, 57, 0, 0, 0, 35, 22, 0, 0)
s = 29: (0, 39, 0, 26, 54, 0, 0, 0, 20, 37, 0, 0)
s = 30: (0, 52, 0, 12, 72, 0, 0, 0, 18, 29, 0, 0)
s = 31: (0, 45, 0, 24, 104, 0, 0, 0, 21, 26, 0, 0)
s = 32: (0, 57, 0, 20, 54, 0, 0, 0, 17, 32, 0, 0)
s = 33: (0, 68, 0, 21, 59, 0, 0, 0, 14, 43, 0, 0)
s = 34: (0, 59, 0, 14, 55, 0, 0, 0, 31, 21, 0, 0)
s = 35: (0, 57, 0, 17, 97, 0, 0, 0, 18, 33, 0, 0)
s = 36: (0, 54, 0, 14, 63, 0, 0, 0, 15, 37, 0, 0)
s = 37: (0, 35, 0, 23, 59, 0, 0, 0, 20, 21, 0, 0)
s = 38: (0, 48, 0, 11, 36, 0, 0, 0, 25, 21, 0, 0)
s = 39: (0, 54, 0, 29, 63, 0, 0, 0, 19, 21, 0, 0)
s = 40: (0, 45, 0, 19, 72, 0, 0, 0, 15, 35, 0, 0)
s = 41: (0, 58, 0, 14, 46, 0, 0, 0, 16, 38, 0, 0)
s = 42: (0, 55, 0, 16, 62, 0, 0, 0, 24, 39, 0, 0)
s = 43: (0, 52, 0, 21, 36, 0, 0, 0, 16, 26, 0, 0)
s = 44: (0, 34, 0, 28, 110, 0, 0, 0, 27, 24, 0, 0)
s = 45: (0, 30, 0, 15, 41, 0, 0, 0, 20, 32, 0, 0)
s = 46: (0, 45, 0, 12, 48, 0, 0, 0, 22, 33, 0, 0)
s = 47: (0, 36, 0, 23, 76, 0, 0, 0, 18, 36, 0, 0)
s = 48: (0, 48, 0, 19, 63, 0, 0, 0, 28, 27, 0, 0)
s = 49: (0, 35, 0, 25, 49, 0, 0, 0, 15, 31, 0, 0)
s = 50: (0, 73, 0, 16, 102, 0, 0, 0, 16, 59, 0, 0)
s = 51: (0, 45, 0, 30, 104, 0, 0, 0, 32, 26, 0, 0)
s = 52: (0, 53, 0, 15, 55, 0, 0, 0, 19, 24, 0, 0)
s = 53: (0, 38, 0, 19, 75, 0, 0, 0, 13, 32, 0, 0)
s = 54: (0, 38, 0, 19, 80, 0, 0, 0, 20, 43, 0, 0)
s = 55: (0, 41, 0, 14, 66, 0, 0, 0, 26, 20, 0, 0)
s = 56: (0, 53, 0, 26, 93, 0, 0, 0, 28, 37, 0, 0)
s = 57: (0, 56, 0, 18, 70, 0, 0, 0, 13, 33, 0, 0)
s = 58: (0, 40, 0, 20, 57, 0, 0, 0, 26, 24, 0, 0)
s = 59: (0, 55, 0, 20, 75, 0, 0, 0, 12, 24, 0, 0)
s = 60: (0, 66, 0, 18, 85, 0, 0, 0, 23, 38, 0, 0)
s = 61: (0, 50, 0, 24, 69, 0, 0, 0, 31, 36, 0, 0)
s = 62: (0, 61, 0, 11, 70, 0, 0, 0, 18, 34, 0, 0)
s = 63: (0, 80, 0, 32, 48, 0, 0, 0, 16, 28, 0, 0)
s = 64: (0, 61, 0, 18, 58, 0, 0, 0, 18, 30, 0, 0)
s = 65: (0, 53, 0, 14, 41, 0, 0, 0, 15, 35, 0, 0)
s = 66: (0, 58, 0, 11, 106, 0, 0, 0, 22, 34, 0, 0)
s = 67: (0, 78, 0, 15, 92, 0, 0, 0, 23, 50, 0, 0)
s = 68: (0, 52, 0, 12, 70, 0, 0, 0, 22, 31, 0, 0)
s = 69: (0, 55, 0, 19, 77, 0, 0, 0, 21, 38, 0, 0)
s = 70: (0, 79, 0, 14, 48, 0, 0, 0, 13, 23, 0, 0)
s = 71: (0, 36, 0, 19, 62, 0, 0, 0, 21, 25, 0, 0)
s = 72: (0, 39, 0, 12, 48, 0, 0, 0, 23, 37, 0, 0)
s = 73: (0, 29, 0, 17, 69, 0, 0, 0, 17, 31, 0, 0)
s = 74: (0, 57, 0, 15, 70, 0, 0, 0, 24, 23, 0, 0)
s = 75: (0, 77, 0, 30, 44, 0, 0, 0, 17, 25, 0, 0)
s = 76: (0, 77, 0, 25, 54, 0, 0, 0, 15, 27, 0, 0)
s = 77: (0, 51, 0, 17, 61, 0, 0, 0, 21, 31, 0, 0)
s = 78: (0, 46, 0, 21, 66, 0, 0, 0, 18, 40, 0, 0)
s = 79: (0, 35, 0, 14, 37, 0, 0, 0, 25, 21, 0, 0)
s = 80: (0, 61, 0, 21, 101, 0, 0, 0, 37, 50, 0, 0)
s = 81: (0, 39, 0, 19, 66, 0, 0, 0, 30, 43, 0, 0)
s = 82: (0, 33, 0, 32, 45, 0, 0, 0, 27, 31, 0, 0)
s = 83: (0, 38, 0, 21, 92, 0, 0, 0, 15, 23, 0, 0)
s = 84: (0, 38, 0, 28, 67, 0, 0, 0, 30, 26, 0, 0)
s = 85: (0, 30, 0, 14, 61, 0, 0, 0, 24, 31, 0, 0)
s = 86: (0, 46, 0, 19, 81, 0, 0, 0, 22, 29, 0, 0)
s = 87: (0, 56, 0, 13, 53, 0, 0, 0, 18, 42, 0, 0)
s = 88: (0, 78, 0, 16, 43, 0, 0, 0, 25, 38, 0, 0)
s = 89: (0, 31, 0, 11, 70, 0, 0, 0, 18, 26, 0, 0)
s = 90: (0, 45, 0, 10, 48, 0, 0, 0, 15, 45, 0, 0)
s = 91: (0, 31, 0, 17, 80, 0, 0, 0, 18, 24, 0, 0)
s = 92: (0, 39, 0, 23, 72, 0, 0, 0, 17, 19, 0, 0)
s = 93: (0, 43, 0, 15, 49, 0, 0, 0, 29, 45, 0, 0)
s = 94: (0, 44, 0, 14, 88, 0, 0, 0, 23, 28, 0, 0)
s = 95: (0, 70, 0, 20, 42, 0, 0, 0, 28, 49, 0, 0)
s = 96: (0, 26, 0, 26, 40, 0, 0, 0, 22, 40, 0, 0)
s = 97: (0, 52, 0, 11, 45, 0, 0, 0, 15, 53, 0, 0)
s = 98: (0, 51, 0, 19, 42, 0, 0, 0, 27, 36, 0, 0)
s = 99: (0, 46, 0, 21, 44, 0, 0, 0, 18, 32, 0, 0)
s = 100: (0, 55, 0, 29, 66, 0, 0, 0, 21, 52, 0, 0)
s = 101: (0, 59, 0, 16, 46, 0, 0, 0, 27, 32, 0, 0)
s = 102: (0, 48, 0, 10, 70, 0, 0, 0, 21, 31, 0, 0)
s = 103: (0, 50, 0, 16, 51, 0, 0, 0, 21, 35, 0, 0)
s = 104: (0, 87, 0, 12, 49, 0, 0, 0, 21, 41, 0, 0)
s = 105: (0, 70, 0, 17, 65, 0, 0, 0, 32, 26, 0, 0)
s = 106: (0, 58, 0, 30, 63, 0, 0, 0, 26, 30, 0, 0)
s = 107: (0, 39, 0, 22, 45, 0, 0, 0, 16, 26, 0, 0)
s = 108: (0, 36, 0, 12, 45, 0, 0, 0, 21, 23, 0, 0)
s = 109: (0, 41, 0, 22, 87, 0, 0, 0, 18, 27, 0, 0)
s = 110: (0, 48, 0, 20, 37, 0, 0, 0, 19, 43, 0, 0)
s = 111: (0, 28, 0, 27, 70, 0, 0, 0, 16, 43, 0, 0)
s = 112: (0, 38, 0, 12, 41, 0, 0, 0, 26, 32, 0, 0)
s = 113: (0, 67, 0, 25, 54, 0, 0, 0, 22, 22, 0, 0)
s = 114: (0, 48, 0, 15, 44, 0, 0, 0, 25, 36, 0, 0)
s = 115: (0, 33, 0, 12, 47, 0, 0, 0, 18, 34, 0, 0)
s = 116: (0, 54, 0, 20, 57, 0, 0, 0, 31, 18, 0, 0)
s = 117: (0, 34, 0, 13, 72, 0, 0, 0, 17, 18, 0, 0)
s = 118: (0, 43, 0, 14, 61, 0, 0, 0, 25, 28, 0, 0)
s = 119: (0, 52, 0, 13, 65, 0, 0, 0, 17, 30, 0, 0)
s = 120: (0, 72, 0, 15, 48, 0, 0, 0, 18, 41, 0, 0)
s = 121: (0, 35, 0, 13, 43, 0, 0, 0, 16, 18, 0, 0)
s = 122: (0, 39, 0, 24, 49, 0, 0, 0, 25, 30, 0, 0)
s = 123: (0, 40, 0, 25, 47, 0, 0, 0, 22, 35, 0, 0)
s = 124: (0, 79, 0, 20, 42, 0, 0, 0, 21, 23, 0, 0)
s = 125: (0, 53, 0, 20, 63, 0, 0, 0, 16, 37, 0, 0)
s = 126: (0, 56, 0, 18, 84, 0, 0, 0, 17, 31, 0, 0)
s = 127: (0, 43, 0, 19, 52, 0, 0, 0, 19, 18, 0, 0)
s = 128: (0, 52, 0, 23, 56, 0, 0, 0, 22, 36, 0, 0)
s = 129: (0, 56, 0, 24, 81, 0, 0, 0, 16, 23, 0, 0)
s = 130: (0, 56, 0, 22, 55, 0, 0, 0, 21, 20, 0, 0)
s = 131: (0, 56, 0, 27, 37, 0, 0, 0, 18, 47, 0, 0)
s = 132: (0, 55, 0, 18, 57, 0, 0, 0, 15, 39, 0, 0)
s = 133: (0, 81, 0, 21, 91, 0, 0, 0, 22, 51, 0, 0)
s = 134: (0, 48, 0, 17, 52, 0, 0, 0, 16, 38, 0, 0)
s = 135: (0, 28, 0, 20, 48, 0, 0, 0, 21, 41, 0, 0)
s = 136: (0, 47, 0, 16, 64, 0, 0, 0, 26, 20, 0, 0)
s = 137: (0, 61, 0, 24, 56, 0, 0, 0, 22, 23, 0, 0)
s = 138: (0, 39, 0, 23, 88, 0, 0, 0, 17, 30, 0, 0)
s = 139: (0, 45, 0, 21, 91, 0, 0, 0, 21, 34, 0, 0)
s = 140: (0, 46, 0, 14, 61, 0, 0, 0, 11, 27, 0, 0)
s = 141: (0, 60, 0, 12, 42, 0, 0, 0, 23, 41, 0, 0)
s = 142: (0, 41, 0, 19, 49, 0, 0, 0, 16, 36, 0, 0)
s = 143: (0, 44, 0, 16, 37, 0, 0, 0, 28, 45, 0, 0)
s = 144: (0, 48, 0, 15, 72, 0, 0, 0, 19, 34, 0, 0)
s = 145: (0, 63, 0, 22, 63, 0, 0, 0, 18, 44, 0, 0)
s = 146: (0, 48, 0, 20, 79, 0, 0, 0, 13, 28, 0, 0)
s = 147: (0, 69, 0, 10, 49, 0, 0, 0, 18, 35, 0, 0)
s = 148: (0, 65, 0, 15, 92, 0, 0, 0, 27, 45, 0, 0)
s = 149: (0, 29, 0, 12, 51, 0, 0, 0, 31, 23, 0, 0)
s = 150: (0, 66, 0, 20, 77, 0, 0, 0, 23, 50, 0, 0)
s = 151: (0, 45, 0, 18, 86, 0, 0, 0, 17, 33, 0, 0)
s = 152: (0, 37, 0, 18, 75, 0, 0, 0, 21, 28, 0, 0)
s = 153: (0, 66, 0, 24, 55, 0, 0, 0, 18, 27, 0, 0)
s = 154: (0, 39, 0, 13, 46, 0, 0, 0, 21, 17, 0, 0)
s = 155: (0, 71, 0, 16, 91, 0, 0, 0, 27, 41, 0, 0)
s = 156: (0, 62, 0, 17, 61, 0, 0, 0, 27, 25, 0, 0)
s = 157: (0, 61, 0, 19, 55, 0, 0, 0, 15, 22, 0, 0)
s = 158: (0, 39, 0, 17, 97, 0, 0, 0, 20, 25, 0, 0)
s = 159: (0, 73, 0, 19, 82, 0, 0, 0, 24, 40, 0, 0)
s = 160: (0, 44, 0, 14, 69, 0, 0, 0, 18, 23, 0, 0)
s = 161: (0, 37, 0, 17, 62, 0, 0, 0, 26, 39, 0, 0)
s = 162: (0, 32, 0, 15, 68, 0, 0, 0, 17, 23, 0, 0)
s = 163: (0, 51, 0, 13, 51, 0, 0, 0, 18, 27, 0, 0)
s = 164: (0, 38, 0, 20, 76, 0, 0, 0, 24, 31, 0, 0)
s = 165: (0, 26, 0, 15, 63, 0, 0, 0, 13, 40, 0, 0)
s = 166: (0, 46, 0, 18, 36, 0, 0, 0, 18, 33, 0, 0)
s = 167: (0, 30, 0, 20, 97, 0, 0, 0, 35, 32, 0, 0)
s = 168: (0, 72, 0, 21, 72, 0, 0, 0, 33, 38, 0, 0)
s = 169: (0, 86, 0, 14, 54, 0, 0, 0, 23, 24, 0, 0)
s = 170: (0, 50, 0, 13, 37, 0, 0, 0, 21, 33, 0, 0)
s = 171: (0, 36, 0, 28, 82, 0, 0, 0, 28, 36, 0, 0)
s = 172: (0, 50, 0, 28, 51, 0, 0, 0, 17, 26, 0, 0)
s = 173: (0, 39, 0, 19, 54, 0, 0, 0, 15, 28, 0, 0)
s = 174: (0, 44, 0, 22, 65, 0, 0, 0, 19, 36, 0, 0)
s = 175: (0, 40, 0, 13, 70, 0, 0, 0, 23, 21, 0, 0)
s = 176: (0, 48, 0, 15, 36, 0, 0, 0, 21, 27, 0, 0)
s = 177: (0, 36, 0, 19, 69, 0, 0, 0, 29, 55, 0, 0)
s = 178: (0, 42, 0, 21, 73, 0, 0, 0, 24, 46, 0, 0)
s = 179: (0, 56, 0, 32, 60, 0, 0, 0, 24, 36, 0, 0)
s = 180: (0, 34, 0, 16, 75, 0, 0, 0, 33, 46, 0, 0)
s = 181: (0, 50, 0, 21, 58, 0, 0, 0, 19, 21, 0, 0)
s = 182: (0, 42, 0, 21, 77, 0, 0, 0, 17, 21, 0, 0)
s = 183: (0, 49, 0, 20, 35, 0, 0, 0, 28, 27, 0, 0)
s = 184: (0, 51, 0, 15, 99, 0, 0, 0, 17, 29, 0, 0)
s = 185: (0, 45, 0, 12, 49, 0, 0, 0, 20, 30, 0, 0)
s = 186: (0, 78, 0, 17, 106, 0, 0, 0, 17, 37, 0, 0)
s = 187: (0, 58, 0, 17, 55, 0, 0, 0, 15, 22, 0, 0)
s = 188: (0, 51, 0, 20, 59, 0, 0, 0, 23, 45, 0, 0)
s = 189: (0, 74, 0, 23, 62, 0, 0, 0, 17, 26, 0, 0)
s = 190: (0, 30, 0, 14, 41, 0, 0, 0, 27, 38, 0, 0)
s = 191: (0, 43, 0, 12, 70, 0, 0, 0, 26, 31, 0, 0)
s = 192: (0, 73, 0, 15, 73, 0, 0, 0, 29, 32, 0, 0)
s = 193: (0, 47, 0, 15, 90, 0, 0, 0, 21, 24, 0, 0)
s = 194: (0, 41, 0, 19, 61, 0, 0, 0, 25, 62, 0, 0)
s = 195: (0, 86, 0, 21, 74, 0, 0, 0, 26, 21, 0, 0)
s = 196: (0, 50, 0, 23, 64, 0, 0, 0, 21, 19, 0, 0)
s = 197: (0, 61, 0, 22, 40, 0, 0, 0, 15, 31, 0, 0)
s = 198: (0, 65, 0, 21, 48, 0, 0, 0, 18, 30, 0, 0)
s = 199: (0, 27, 0, 25, 73, 0, 0, 0, 24, 33, 0, 0)
s = 200: (0, 30, 0, 25, 48, 0, 0, 0, 17, 34, 0, 0)
************************************************************************
ES/LS-VALUES:
jobnr.   ES(i)    LS(i)
------------------------------------------------------------------------
  0        0        0
  1        0       48
  2        0       53
  3        0       36
  4        5       42
  5        1       58
  6       17       55
  7       12       61
  8       26       65
  9       15       65
 10       12       69
 11       33       73
************************************************************************
BIG-M-VALUES:
M1 = 60, M2 = 329
************************************************************************
